
Gurobi 10.0.1 (linux64) logging started Tue Sep 12 19:10:33 2023

Set parameter LogFile to value "./log/lipa60a.log"
Set parameter TimeLimit to value 180
Gurobi Optimizer version 10.0.1 build v10.0.1rc0 (linux64)

CPU model: 12th Gen Intel(R) Core(TM) i5-12600KF, instruction set [SSE2|AVX|AVX2]
Thread count: 8 physical cores, 16 logical processors, using up to 16 threads

Optimize a model with 120 rows, 3600 columns and 7200 nonzeros
Model fingerprint: 0xf0aefe73
Model has 6265800 quadratic objective terms
Variable types: 0 continuous, 3600 integer (3600 binary)
Coefficient statistics:
  Matrix range     [1e+00, 1e+00]
  Objective range  [0e+00, 0e+00]
  QObjective range [2e+00, 4e+02]
  Bounds range     [1e+00, 1e+00]
  RHS range        [1e+00, 1e+00]
Found heuristic solution: objective 110073.00000
Presolve removed 0 rows and 0 columns (presolve time = 86s) ...
Presolve time: 86.24s
Presolved: 120 rows, 3600 columns, 7200 nonzeros
Presolved model has 6269400 quadratic objective terms
Variable types: 0 continuous, 3600 integer (3600 binary)

Root simplex log...

Iteration    Objective       Primal Inf.    Dual Inf.      Time
       0    0.0000000e+00   0.000000e+00   1.700990e+05     87s
    1397   -5.8355625e+05   0.000000e+00   1.023105e+04     90s
    2088   -5.9548049e+05   0.000000e+00   4.641648e+03     96s
    2460   -5.9895807e+05   0.000000e+00   3.011171e+03    101s
    2695   -6.0063135e+05   0.000000e+00   2.226861e+03    105s
    3028   -6.0253581e+05   0.000000e+00   1.334006e+03    113s
    3135   -6.0305991e+05   0.000000e+00   1.088135e+03    116s
    3344   -6.0398378e+05   0.000000e+00   6.546415e+02    123s
    3446   -6.0439234e+05   0.000000e+00   4.627103e+02    127s
    3546   -6.0477026e+05   0.000000e+00   2.849496e+02    132s
    3694   -6.0529088e+05   0.000000e+00   4.014051e+01    138s
    3720   -6.0537565e+05   0.000000e+00   0.000000e+00    140s

Root relaxation: objective -6.053757e+05, 3720 iterations, 53.90 seconds (92.29 work units)

    Nodes    |    Current Node    |     Objective Bounds      |     Work
 Expl Unexpl |  Obj  Depth IntInf | Incumbent    BestBd   Gap | It/Node Time

H    0     0                    109645.00000    0.00000   100%     -  140s
H    0     0                    109590.00000    0.00000   100%     -  140s
H    0     0                    109498.00000    0.00000   100%     -  140s
     0     0   -0.00000    0 3600 109498.000    0.00000   100%     -  140s
H    0     0                    109090.00000    0.00000   100%     -  142s
     0     0   -0.00000    0 3600 109090.000    0.00000   100%     -  146s
H    0     0                    108802.00000    0.00000   100%     -  179s
H    0     0                    108641.00000    0.00000   100%     -  180s

Explored 1 nodes (3720 simplex iterations) in 180.04 seconds (195.41 work units)
Thread count was 16 (of 16 available processors)

Solution count 7: 108641 108802 109090 ... 110073

Time limit reached
Best objective 1.086410000000e+05, best bound 0.000000000000e+00, gap 100.0000%
